182
0 60 119 18 140 139 63 61 181 75 
5 108 138 91 102 137 111 131 24 160 
97 73 169 66 142 132 53 148 85 155 
65 164 146 156 11 122 116 167 33 72 
93 121 178 56 9 176 13 152 166 50 
99 58 162 135 84 37 41 38 7 49 
115 48 107 12 144 59 67 133 113 157 
47 46 45 161 170 26 68 79 1 114 
110 83 16 149 89 90 31 35 128 168 
20 120 153 151 88 163 80 15 74 126 
81 105 179 76 165 6 27 42 69 130 
141 104 103 51 177 22 154 28 10 101 
4 55 136 159 39 23 134 77 19 171 
98 172 100 118 150 87 30 112 109 8 
158 92 117 174 82 95 173 70 43 78 
34 123 40 25 96 29 94 86 14 125 
129 52 17 145 127 143 3 62 64 57 
21 36 44 180 124 32 2 147 54 106 
175 71 
